NAME: cityu10
COMMENT : 10 locations
COMMENT : Best: 384.43
TYPE: TSP
DIMENSION: 10
EDGE_WEIGHT_TYPE: CITYU
NODE_COORD_SECTION
1 4 7147
2 2 59
3 1 1904
4 1 1768
5 2 61
6 1 1898
7 1 1643
8 1 1992
9 1 1726
10 1 1728
